computational_data/real_data/solutions/wdbc_trial_018_lex.sol
Optimal - objective value 8.64601800
      0 r_0                         0                0.982301
      1 r_1                         0                0.982301
      2 r_2                         0                0.982301
      3 r_3                         0                0.982301
      4 r_4                         0                0.982301
      5 r_5                         0                0.982301
      6 r_6                         1                0.982301
      7 r_7                         1                0.973451
      8 r_8                         1                0.973451
      9 r_9                         0                0.973451
     10 r_10                        1                0.964602
     11 r_11                        0                0.964602
     12 r_12                        1                0.955752
     13 r_13                        1                0.946903
     14 r_14                        1                0.938053
     15 r_15                        1                0.929204
     16 b_0                         1                0.982301
     17 b_1                         0                0.982301
     18 b_2                         0                0.982301
     19 b_3                         0                0.982301
     20 b_4                         0                0.982301
     21 b_5                         0                0.982301
     22 b_6                         0                0.982301
     23 b_7                         0                0.973451
     24 b_8                         0                0.973451
     25 b_9                         0                0.973451
     26 b_10                        0                0.964602
     27 b_11                        0                0.964602
     28 b_12                        0                0.955752
     29 b_13                        0                0.946903
     30 b_14                        0                0.938053
     31 b_15                        0                0.929204
